10
84
72
21
74
59
127
36
38
24
18
137
79
106
90
49
6
1
130
92
8
42
122
80
31
89
138
133
148
142
105
67
108
58
28
93
47
109
91
98
23
45
32
11
15
17
113
75
19
53
134
88
16
22
94
66
65
4
97
143
56
139
119
118
124
26
129
70
104
111
102
99
141
60
62
150
35
27
12
57
7
9
117
55
149
83
34
135
140
145
87
125
51
61
25
81
69
73
50
44
114
144
64
40
54
2
116
82
126
95
76
13
33
146
103
37
5
52
78
96
39
101
121
30
107
112
132
29
46
3
136
43
123
115
120
128
41
71
100
14
48
147
85
68
20
86
77
110
131
63
10
